p cnf 91 377
4 19 23 -50 -51 -68 0
7 -8 45 46 55 60 0
3 4 -50 -51 -68 0
-3 -19 -23 -51 67 0
-3 -19 -23 67 91 0
-4 -61 -63 78 82 0
-5 -6 37 62 82 0
10 12 26 -27 -28 0
10 21 22 69 -77 0
10 -21 22 -69 -77 0
11 12 26 -27 -28 0
-14 -31 57 58 78 0
29 -31 57 58 -80 0
40 42 45 46 -87 0
1 45 60 83 -87 0
-3 -19 -51 -68 -89 0
-19 -23 25 65 80 0
-19 67 -68 -86 91 0
-21 -69 70 -72 88 0
1 -42 -60 83 0
2 5 -52 -74 0
2 -35 -61 82 0
-3 16 51 -68 0
-3 -16 -50 -89 0
6 -36 -37 63 0
7 8 55 64 0
8 9 55 64 0
-8 -10 -70 -83 0
-8 -39 -43 -87 0
9 40 -43 45 0
9 45 -48 55 0
10 -27 -32 -33 0
10 -27 -33 34 0
-10 -26 27 28 0
11 26 34 57 0
-11 -14 -15 76 0
12 13 -31 -79 0
14 57 -78 -79 0
-16 -49 -50 68 0
-17 -18 -19 -69 0
18 23 39 69 0
-18 -38 -39 -72 0
19 23 32 -33 0
-19 -25 -26 -28 0
20 21 22 88 0
-22 41 -53 -72 0
23 26 28 59 0
23 51 68 -91 0
23 -65 -74 -75 0
25 32 -33 34 0
38 41 53 -54 0
-38 53 -54 71 0
40 43 46 87 0
50 66 86 89 0
52 -63 -78 84 0
-65 74 -75 -76 0
-66 -67 86 89 0
3 -49 -51 -68 0
-3 -16 67 91 0
-3 -23 56 -61 0
4 -61 82 -84 0
-7 -8 -42 -60 0
12 13 26 -31 0
-17 22 -44 -69 0
19 23 38 39 0
19 51 -68 -91 0
-19 -23 -24 -59 0
-19 -23 -38 54 0
-19 -23 -41 -48 0
21 69 -72 88 0
23 -74 -75 76 0
-23 -27 -28 -34 0
29 -30 -37 57 0
-49 -50 -85 90 0
66 67 -68 -86 0
1 3 24 0
1 3 27 0
1 -32 -62 0
-1 62 78 0
2 24 -32 0
2 -62 65 0
-2 -5 61 0
-2 -5 -65 0
3 4 32 0
3 56 -62 0
4 -16 -89 0
4 -52 63 0
4 -73 -79 0
-4 -61 84 0
5 52 78 0
6 -65 -82 0
7 46 64 0
-7 -8 -45 0
8 -10 -70 0
-8 46 -64 0
-8 -83 87 0
9 46 64 0
-9 -19 -40 0
10 21 70 0
10 26 34 0
11 -19 -27 0
12 -73 78 0
13 -16 67 0
13 -73 79 0
13 85 -86 0
13 -85 90 0
13 86 -90 0
-13 66 90 0
17 19 39 0
17 44 -71 0
-17 44 -77 0
-17 71 -72 0
18 47 64 0
-18 47 -81 0
19 -30 -33 0
19 32 59 0
19 74 -76 0
-19 -39 -53 0
-20 53 77 0
22 41 -53 0
-22 -41 -53 0
-22 70 -71 0
23 -33 -80 0
-23 -26 30 0
-23 43 -44 0
-23 79 84 0
24 35 -59 0
24 -35 36 0
-24 -25 59 0
25 28 -33 0
25 30 74 0
25 34 80 0
25 74 -75 0
-25 -33 -74 0
-25 36 63 0
-25 -65 -76 0
26 -34 57 0
27 -34 -57 0
29 30 -73 0
-29 -30 37 0
-31 -78 79 0
32 33 56 0
32 -56 -61 0
-35 56 -59 0
36 37 -63 0
38 54 72 0
38 72 -88 0
-38 41 70 0
-38 46 -64 0
-39 -54 71 0
-40 -43 87 0
41 -45 48 0
-42 60 -83 0
46 -55 -87 0
-46 47 64 0
-46 47 -64 0
-46 -47 64 0
-46 -47 -64 0
47 -54 -81 0
-47 -64 81 0
50 68 -86 0
51 81 85 0
51 -81 -85 0
52 61 62 0
52 -61 -84 0
-54 -70 72 0
58 76 80 0
59 -61 -62 0
65 74 -82 0
-65 74 82 0
-66 86 90 0
70 77 -88 0
70 83 -88 0
75 76 80 0
-81 90 -91 0
1 -69 83 88 0
7 -8 45 -48 0
-19 -23 86 89 0
1 7 0
1 -32 0
1 -83 0
-1 -2 0
-1 -10 0
-1 -31 0
-1 -59 0
-1 73 0
-1 83 0
-1 -90 0
2 6 0
2 -6 0
2 -32 0
2 69 0
-2 35 0
-2 74 0
3 17 0
3 42 0
3 -42 0
3 -50 0
3 51 0
3 56 0
3 -56 0
3 59 0
3 66 0
3 -67 0
3 91 0
-3 -4 0
-3 -16 0
-3 -47 0
-3 50 0
-3 -50 0
-3 51 0
4 8 0
4 16 0
4 61 0
4 -61 0
4 85 0
4 89 0
-4 67 0
-4 -82 0
-4 -84 0
5 41 0
5 -62 0
5 63 0
5 -78 0
5 -82 0
5 -84 0
-5 -63 0
-5 -74 0
-5 78 0
-5 84 0
6 35 0
-6 35 0
-6 36 0
-6 61 0
-6 -65 0
7 8 0
7 -47 0
7 -87 0
-7 -46 0
-7 83 0
-7 87 0
8 -42 0
8 -46 0
8 83 0
-8 59 0
-8 -64 0
-8 70 0
-8 88 0
9 17 0
10 12 0
10 20 0
10 -28 0
10 -56 0
10 -57 0
10 -68 0
10 -70 0
10 73 0
10 83 0
10 -90 0
-10 -12 0
-10 -24 0
11 12 0
11 14 0
11 15 0
11 -19 0
11 -28 0
11 -31 0
11 34 0
11 57 0
11 -76 0
11 -80 0
-11 30 0
-11 31 0
-11 -57 0
-11 -58 0
-11 80 0
12 58 0
12 -73 0
-12 -13 0
-12 -14 0
-12 -29 0
-12 31 0
-12 -58 0
-12 78 0
-12 -78 0
-12 -79 0
13 -16 0
13 58 0
13 67 0
13 -73 0
13 79 0
13 86 0
13 -86 0
13 89 0
-13 28 0
-13 -67 0
-13 68 0
-13 -85 0
-13 89 0
14 31 0
14 -57 0
14 73 0
14 78 0
14 82 0
-14 49 0
15 26 0
15 -29 0
15 31 0
15 -57 0
15 -58 0
15 80 0
-15 29 0
-15 -29 0
-15 -31 0
-15 57 0
-15 80 0
16 49 0
-16 -49 0
-16 68 0
-16 -91 0
17 18 0
17 40 0
17 44 0
17 -71 0
17 -72 0
-17 -40 0
-17 57 0
18 41 0
18 54 0
-18 -47 0
-18 -60 0
-18 -77 0
19 21 0
19 36 0
19 -36 0
19 41 0
19 54 0
19 64 0
19 -74 0
19 75 0
19 85 0
19 -85 0
-19 26 0
-19 -56 0
-19 -60 0
-19 79 0
-19 -79 0
-19 81 0
-19 -89 0
20 -38 0
20 53 0
20 -88 0
-20 -21 0
-20 70 0
-20 72 0
21 -72 0
21 -77 0
-21 -88 0
22 -41 0
22 -44 0
22 71 0
22 88 0
-22 53 0
-22 -71 0
-22 -88 0
23 -27 0
23 -36 0
23 -43 0
23 54 0
23 56 0
23 60 0
23 64 0
23 85 0
23 -86 0
23 88 0
23 -91 0
-23 -40 0
